&CONTROL
  title = ' DEISA pw benchmark '
  calculation = 'scf'
  restart_mode = 'from_scratch'
  tprnfor = .FALSE.
  prefix = 'ausurf'
  pseudo_dir = './pseudo/'
  outdir = './save/'
  verbosity='high'
  disk_io = 'none'
/
&SYSTEM
  ibrav = 8
  celldm(1) = 16.353258
  celldm(2) =  1.000000
  celldm(3) =  2.244492
  nat       =    54
  ntyp      =     1
  ecutwfc   = 25.0
  occupations  = 'smearing'
  smearing     = 'marzari-vanderbilt'
  degauss   = 0.05
/
&ELECTRONS
  diagonalization  = 'david'
  mixing_beta  = 0.7
  electron_maxstep = 5
/
&IONS
  ion_dynamics  = 'none'
/
&CELL
  cell_dynamics  = 'none'
/
ATOMIC_SPECIES
  Au  196.96  Au.pbe-nd-van.UPF
K_POINTS gamma

ATOMIC_POSITIONS (crystal)
Au   0.000000 0.000000 0.000000
Au   0.222222 0.111111 0.121259
Au   0.111111 0.222222 0.242519
Au   0.333333 0.000000 0.000000
Au   0.555556 0.111111 0.121259
Au   0.444444 0.222222 0.242519
Au   0.666667 0.000000 0.000000
Au   0.888889 0.111111 0.121259
Au   0.777778 0.222222 0.242519
Au   0.000000 0.333333 0.000000
Au   0.222222 0.444444 0.121259
Au   0.111111 0.555556 0.242519
Au   0.333333 0.333333 0.000000
Au   0.555556 0.444444 0.121259
Au   0.444444 0.555556 0.242519
Au   0.666667 0.333333 0.000000
Au   0.888889 0.444444 0.121259
Au   0.777778 0.555556 0.242519
Au   0.000000 0.666667 0.000000
Au   0.222222 0.777778 0.121259
Au   0.111111 0.888889 0.242519
Au   0.333333 0.666667 0.000000
Au   0.555556 0.777778 0.121259
Au   0.444444 0.888889 0.242519
Au   0.666667 0.666667 0.000000
Au   0.888889 0.777778 0.121259
Au   0.777778 0.888889 0.242519
Au   0.000000 0.000000 0.363778
Au   0.222222 0.111111 0.485037
Au   0.111111 0.222222 0.606296
Au   0.333333 0.000000 0.363778
Au   0.555556 0.111111 0.485037
Au   0.444444 0.222222 0.606296
Au   0.666667 0.000000 0.363778
Au   0.888889 0.111111 0.485037
Au   0.777778 0.222222 0.606296
Au   0.000000 0.333333 0.363778
Au   0.222222 0.444444 0.485037
Au   0.111111 0.555556 0.606296
Au   0.333333 0.333333 0.363778
Au   0.555556 0.444444 0.485037
Au   0.444444 0.555556 0.606296
Au   0.666667 0.333333 0.363778
Au   0.888889 0.444444 0.485037
Au   0.777778 0.555556 0.606296
Au   0.000000 0.666667 0.363778
Au   0.222222 0.777778 0.485037
Au   0.111111 0.888889 0.606296
Au   0.333333 0.666667 0.363778
Au   0.555556 0.777778 0.485037
Au   0.444444 0.888889 0.606296
Au   0.666667 0.666667 0.363778
Au   0.888889 0.777778 0.485037
Au   0.777778 0.888889 0.606296
